swarm_exploration/utils/lkh_mtsp_solver/resource/amtsp_4.atsp
NAME : amtsp
TYPE : ATSP
DIMENSION : 7
EDGE_WEIGHT_TYPE : EXPLICIT
EDGE_WEIGHT_FORMAT : FULL_MATRIX
EDGE_WEIGHT_SECTION
100000 -100000 100000 100000 100000 100000 100000 
100000 100000 624 738 589 684 100000 
0 0 100000 184 233 171 277 
0 0 184 100000 120 139 414 
0 0 233 120 100000 231 495 
0 0 171 139 231 100000 255 
-100000 100000 277 414 495 255 100000 
