swarm_exploration/utils/lkh_mtsp_solver/resource/amtsp_4.tour
NAME : amtsp.-99747.tour
COMMENT : Length = -99747
COMMENT : Found by LKH [Keld Helsgaun] Mon Jan 15 15:10:40 2024
TYPE : TOUR
DIMENSION : 3
TOUR_SECTION
1
2
3
-1
EOF
